Li1 Cr2 O4                              
   1.0000000000000000     
     2.9458847495907916   -0.0008313091118002    0.0002673827052461
     0.0008197950084561    3.8240724964818882   -0.0093637681349994
    -0.0021278396312541   -0.0099378903391527    6.7062456621581337
   Li   Cr   O 
     1     2     4
Direct
     0.3024666412483034    0.3421172605657124    0.5391216708796860
     0.3022487828505714    0.3471537181352104    0.1410608525989578
     0.8025490630733615    0.8433385597203753    0.8518437130177831
     0.8025783329959960    0.3470585062653985    0.3262001428566627
     0.3025446129673667    0.8460127224617005    0.0682553182746661
     0.3024729084041491    0.8490763299027949    0.6687747205700455
     0.8022180521579904    0.3453539928936473    0.9280212146943306

  0.00000000E+00  0.00000000E+00  0.00000000E+00
  0.00000000E+00  0.00000000E+00  0.00000000E+00
  0.00000000E+00  0.00000000E+00  0.00000000E+00
  0.00000000E+00  0.00000000E+00  0.00000000E+00
  0.00000000E+00  0.00000000E+00  0.00000000E+00
  0.00000000E+00  0.00000000E+00  0.00000000E+00
  0.00000000E+00  0.00000000E+00  0.00000000E+00
