Li1 Cr2 O4                              
   1.0000000000000000     
     3.2012328921760655   -0.0017327958767213    0.0024804210369579
     1.6013041603140923    2.7720907656516460    0.0004087875634645
    -0.0037396725021849   -0.0018348706867879    8.4086255362530498
   Li   Cr   O 
     1     2     4
Direct
     0.6283849767251137    0.9322156530952470    0.1948279639521192
     0.2953970439683509    0.5988069525383192    0.8895891836107493
     0.9630075086315458    0.2650814710330024    0.5270464770272782
     0.6296730270261942    0.9316348768659374    0.4182941094295691
     0.6288762039501659    0.9322808131652432    0.8592068565916532
     0.2960487366541003    0.5987072443560044    0.6445968365621919
     0.2951648905204965    0.5990297228405942    0.0946721918607293

  0.00000000E+00  0.00000000E+00  0.00000000E+00
  0.00000000E+00  0.00000000E+00  0.00000000E+00
  0.00000000E+00  0.00000000E+00  0.00000000E+00
  0.00000000E+00  0.00000000E+00  0.00000000E+00
  0.00000000E+00  0.00000000E+00  0.00000000E+00
  0.00000000E+00  0.00000000E+00  0.00000000E+00
  0.00000000E+00  0.00000000E+00  0.00000000E+00
