Li1 Cr2 O4                              
   1.0000000000000000     
     2.8407991734316340    0.0026696230498761   -0.7545428257563589
    -0.5892851665823648    4.5318560377181063   -2.2025193863062231
    -0.0015369785648599   -0.0132159403221205    5.7398071405502398
   Li   Cr   O 
     1     2     4
Direct
     0.7875156765045807    0.3024836623264948    0.7223491485974387
     0.0537070902628287    0.5655991406808077    0.2538373422306617
     0.5219403062634517    0.0375041376663881    0.1904263216947100
     0.6435916844466103    0.4749567874153104    0.4328372916890173
     0.1394330408871303    0.9986292774767325    0.4244167594482439
     0.4365420956794577    0.6053089683132741    0.0203763979459425
     0.9320731430033264    0.1274135010755006    0.0116032898271915

  0.00000000E+00  0.00000000E+00  0.00000000E+00
  0.00000000E+00  0.00000000E+00  0.00000000E+00
  0.00000000E+00  0.00000000E+00  0.00000000E+00
  0.00000000E+00  0.00000000E+00  0.00000000E+00
  0.00000000E+00  0.00000000E+00  0.00000000E+00
  0.00000000E+00  0.00000000E+00  0.00000000E+00
  0.00000000E+00  0.00000000E+00  0.00000000E+00
