Li1 Cr2 O4                              
   1.0000000000000000     
     3.1429286742938354    0.0020977033452107    0.5942619426465549
     1.5139836378760756    2.7545602661735020    0.5935126295350840
    -0.0007427496342969    0.0006832291920827    8.6439452477025434
   Li   Cr   O 
     1     2     4
Direct
     0.1291929273134627    0.0223986321755333    0.9462715722206823
     0.5660155919065233    0.4588437804435458    0.6374400348552253
     0.3537100419505838    0.2463443310522790    0.2760576218903640
     0.9095468676458964    0.8025185810955110    0.6071520676102012
     0.0568438472018804    0.9493856615528825    0.1670050545045353
     0.4976101419513436    0.3908019446080921    0.8416695516174174
     0.6474858714120524    0.5402091899246263    0.3940384573765713

  0.00000000E+00  0.00000000E+00  0.00000000E+00
  0.00000000E+00  0.00000000E+00  0.00000000E+00
  0.00000000E+00  0.00000000E+00  0.00000000E+00
  0.00000000E+00  0.00000000E+00  0.00000000E+00
  0.00000000E+00  0.00000000E+00  0.00000000E+00
  0.00000000E+00  0.00000000E+00  0.00000000E+00
  0.00000000E+00  0.00000000E+00  0.00000000E+00
